c turning on binary mode checking
c parsing input formula with 202048 variables and 780990 clauses
c finished parsing, read 2320505 bytes from proof file
c detected empty clause; start verification via backward checking
c 8449 of 780990 clauses in core                            
c 2756 of 93947 lemmas in core using 77892 resolution steps
c 0 RAT lemmas in core; 484 redundant literals in core lemmas
s VERIFIED
c verification time: 1.144 seconds
